NAME: line_24_89
TYPE: TSP
COMMENT: srandom_24_89
DIMENSION: 24
EDGE_WEIGHT_TYPE: EUC_2D
NODE_COORD_SECTION
1 4009 3675
2 3135 4555
3 2883 4631
4 1804 2010
5 4081 1391
6 2702 3800
7 3103 4248
8 2908 386
9 4646 2136
10 2431 2002
11 1328 23
12 3677 3630
13 4312 871
14 4972 2997
15 907 3230
16 4082 917
17 2469 2562
18 3310 4200
19 4283 4283
20 3392 2221
21 3208 1564
22 2886 3777
23 1632 3799
24 4098 4266
